block_1                                 
   1.00000000000000     
    13.5284877357208551   -0.1897217256869456    0.0302897556735725
    -6.9272664894171472   11.9401172436100893   -0.0223487241290007
     0.0580362647757540    0.0147543966490530   22.0963078099084704
   C    N    Ni   K    S 
    24    32     1     2     2
Direct
  0.0852334315914668  0.1094082072552856  0.4616625834732727
  0.3977899326489530  0.4243612839917878  0.5365503146518775
  0.2352603226099198  0.4285140885929720  0.5159814395404034
  0.2416940545417212  0.2595369841121391  0.5042539251527578
  0.0798064479520861  0.4305024071196313  0.4748669597104463
  0.0905190111502898  0.2754992712088613  0.4529291059640084
  0.5905474363464344  0.6069955288229907  0.5442493455228115
  0.9027497673003608  0.9220477261070422  0.4673122773335116
  0.7339993686803210  0.9195615117426359  0.4769697083435258
  0.7563098481846322  0.7630631036357557  0.5118614391991995
  0.5818955007309494  0.9260846198734874  0.5153092097060361
  0.5874791544044944  0.7704706348997779  0.5406599234895804
  0.5849451996994808  0.1022302549039008  0.5382143086951918
  0.8975894893490038  0.4244952636212729  0.4824629081474709
  0.7288026861397922  0.4192205088467599  0.4934890635243068
  0.7522649314734134  0.2622438304718743  0.5216910219830876
  0.5770425902885797  0.4214767290082119  0.5341120433949407
  0.5788056351666592  0.2616102750049624  0.5508458228435652
  0.0739760001594175  0.6075757152060440  0.4649744206573374
  0.4058327788921386  0.9381869290327766  0.5009762772297053
  0.2591056406329220  0.9484470268421614  0.4571253054733675
  0.2364895790722651  0.7728742112896505  0.4931428164445103
  0.0877762543121205  0.9360750828549729  0.4389974268609321
  0.0802044315709486  0.7687743713061913  0.4377509039983453
  0.3486056705397798  0.3136212621820111  0.5248344839451187
  0.1917680956649984  0.3242439315738729  0.4876082687775800
  0.1770033125041345  0.1477935508802797  0.4977435957614366
  0.0446579012188439  0.3393309077272052  0.4406479504612448
  0.0441448250683916  0.1686092610264940  0.4347900193745250
  0.3378615579674012  0.4787704304639573  0.5421316934184695
  0.1660597562484265  0.4730244350274271  0.5163487095098626
  0.0161029727433204  0.4875599633256381  0.4687625442510525
  0.8681924570832800  0.8248612891489493  0.4967011195863276
  0.6885786434647003  0.8145718490884482  0.5058553675562256
  0.7037790662957489  0.6570883394294689  0.5313949136608368
  0.5428023860540258  0.8362836895300967  0.5517334409280454
  0.5386200464971563  0.6651423050391507  0.5608402089546947
  0.8395609151424670  0.9691062530348172  0.4537772319785874
  0.6679373217148357  0.9665982585568424  0.4752922810987711
  0.5221755648923446  0.9892777497073523  0.5214153485765322
  0.8636925390701689  0.3246375176453701  0.5081876790618489
  0.6852699924053811  0.3136510083773085  0.5203620995821094
  0.6998266777557018  0.1531680760711474  0.5338197687310628
  0.5372613298000912  0.3276099708419881  0.5674043351794762
  0.5254408007198627  0.1502390959754540  0.5593520529632262
  0.8346111342534797  0.4720536283080259  0.4707156899706922
  0.6607484600971039  0.4635751450121299  0.4928548844423731
  0.5204034741857033  0.4864305332043412  0.5431662096175176
  0.3413197081558839  0.8281897352807938  0.5163827678661521
  0.1922304445439608  0.8290575832924086  0.4626871974880867
  0.1680202340618486  0.6612810333341889  0.5011915706938355
  0.0281362407511842  0.8248886275399488  0.4250700425819513
  0.0313921954442035  0.6561195847755267  0.4310781994104188
  0.3723037813664248  0.0006386043827423  0.4711609312232776
  0.2044001288766036  0.0007071303510974  0.4416797931527932
  0.0239293213107610  0.9881199772176855  0.4510794827316383
  0.1826372742956748  0.5893243586311741  0.5728854771797438
  0.3620353647410383  0.9261014314118337  0.6387880452302109
  0.3921310138334235  0.6022118194950069  0.6582272418149249
  0.2873854542977285  0.7240898175065885  0.7183716386663958
  0.1530351668263617  0.6217334452365570  0.6599417250710058
 
  0.00000000E+00  0.00000000E+00  0.00000000E+00
  0.00000000E+00  0.00000000E+00  0.00000000E+00
  0.00000000E+00  0.00000000E+00  0.00000000E+00
  0.00000000E+00  0.00000000E+00  0.00000000E+00
  0.00000000E+00  0.00000000E+00  0.00000000E+00
  0.00000000E+00  0.00000000E+00  0.00000000E+00
  0.00000000E+00  0.00000000E+00  0.00000000E+00
  0.00000000E+00  0.00000000E+00  0.00000000E+00
  0.00000000E+00  0.00000000E+00  0.00000000E+00
  0.00000000E+00  0.00000000E+00  0.00000000E+00
  0.00000000E+00  0.00000000E+00  0.00000000E+00
  0.00000000E+00  0.00000000E+00  0.00000000E+00
  0.00000000E+00  0.00000000E+00  0.00000000E+00
  0.00000000E+00  0.00000000E+00  0.00000000E+00
  0.00000000E+00  0.00000000E+00  0.00000000E+00
  0.00000000E+00  0.00000000E+00  0.00000000E+00
  0.00000000E+00  0.00000000E+00  0.00000000E+00
  0.00000000E+00  0.00000000E+00  0.00000000E+00
  0.00000000E+00  0.00000000E+00  0.00000000E+00
  0.00000000E+00  0.00000000E+00  0.00000000E+00
  0.00000000E+00  0.00000000E+00  0.00000000E+00
  0.00000000E+00  0.00000000E+00  0.00000000E+00
  0.00000000E+00  0.00000000E+00  0.00000000E+00
  0.00000000E+00  0.00000000E+00  0.00000000E+00
  0.00000000E+00  0.00000000E+00  0.00000000E+00
  0.00000000E+00  0.00000000E+00  0.00000000E+00
  0.00000000E+00  0.00000000E+00  0.00000000E+00
  0.00000000E+00  0.00000000E+00  0.00000000E+00
  0.00000000E+00  0.00000000E+00  0.00000000E+00
  0.00000000E+00  0.00000000E+00  0.00000000E+00
  0.00000000E+00  0.00000000E+00  0.00000000E+00
  0.00000000E+00  0.00000000E+00  0.00000000E+00
  0.00000000E+00  0.00000000E+00  0.00000000E+00
  0.00000000E+00  0.00000000E+00  0.00000000E+00
  0.00000000E+00  0.00000000E+00  0.00000000E+00
  0.00000000E+00  0.00000000E+00  0.00000000E+00
  0.00000000E+00  0.00000000E+00  0.00000000E+00
  0.00000000E+00  0.00000000E+00  0.00000000E+00
  0.00000000E+00  0.00000000E+00  0.00000000E+00
  0.00000000E+00  0.00000000E+00  0.00000000E+00
  0.00000000E+00  0.00000000E+00  0.00000000E+00
  0.00000000E+00  0.00000000E+00  0.00000000E+00
  0.00000000E+00  0.00000000E+00  0.00000000E+00
  0.00000000E+00  0.00000000E+00  0.00000000E+00
  0.00000000E+00  0.00000000E+00  0.00000000E+00
  0.00000000E+00  0.00000000E+00  0.00000000E+00
  0.00000000E+00  0.00000000E+00  0.00000000E+00
  0.00000000E+00  0.00000000E+00  0.00000000E+00
  0.00000000E+00  0.00000000E+00  0.00000000E+00
  0.00000000E+00  0.00000000E+00  0.00000000E+00
  0.00000000E+00  0.00000000E+00  0.00000000E+00
  0.00000000E+00  0.00000000E+00  0.00000000E+00
  0.00000000E+00  0.00000000E+00  0.00000000E+00
  0.00000000E+00  0.00000000E+00  0.00000000E+00
  0.00000000E+00  0.00000000E+00  0.00000000E+00
  0.00000000E+00  0.00000000E+00  0.00000000E+00
  0.00000000E+00  0.00000000E+00  0.00000000E+00
  0.00000000E+00  0.00000000E+00  0.00000000E+00
  0.00000000E+00  0.00000000E+00  0.00000000E+00
  0.00000000E+00  0.00000000E+00  0.00000000E+00
  0.00000000E+00  0.00000000E+00  0.00000000E+00
