C  N  H  Fe                             
   1.00000000000000     
    16.7868938757701223   -0.0004761575170958    0.0000000000000000
    -0.0002548307990919   12.7450444656922084    0.0000000000000000
     0.0000000000000000    0.0000000000000000   14.2575562153876643
   C    N    H    Fe
    24    36    12     1
Direct
  0.3292013717271445  0.4576740287548214  0.5097225322781093
  0.6707986282728554  0.5423259712451866  0.5097225322781093
  0.2120621264299202  0.7966977714095044  0.5011260113386081
  0.7879378735700800  0.2033022285904883  0.5011260113386081
  0.2575429734890767  0.6284458350393196  0.5127663430113784
  0.7424570265109228  0.3715541649606803  0.5127663430113784
  0.1232556761210704  0.6469674345151585  0.5123043454331117
  0.8767443238789296  0.3530325654848421  0.5123043454331117
  0.9890839022273871  0.6752191695825026  0.5034755020562913
  0.0109160977726134  0.3247808304174972  0.5034755020562913
  0.0677321537753364  0.8223869017188605  0.4931120687174662
  0.9322678462246631  0.1776130982811397  0.4931120687174662
  0.8436503641809860  0.0423640365643470  0.4870926091233845
  0.1563496358190134  0.9576359634356533  0.4870926091233845
  0.7223751940214511  0.7054403927265149  0.4904892045435691
  0.2776248059785492  0.2945596072734850  0.4904892045435691
  0.7679786289712087  0.8746110969970458  0.4827829951539283
  0.2320213710287918  0.1253889030029546  0.4827829951539283
  0.6330820669136965  0.8568674896491547  0.4938830328217020
  0.3669179330863029  0.1431325103508454  0.4938830328217020
  0.4981451691975294  0.8254704224296948  0.5070075261706212
  0.5018548308024710  0.1745295775703045  0.5070075261706212
  0.5804443589377858  0.6824134485454884  0.5135851584349278
  0.4195556410622144  0.3175865514545124  0.5135851584349278
  0.1346494942663658  0.7551793460801296  0.5017753134426433
  0.8653505057336336  0.2448206539198718  0.5017753134426433
  0.0801488948337606  0.9251232686781230  0.4848587987113662
  0.9198511051662406  0.0748767313218765  0.4848587987113662
  0.2226335508760670  0.8992459312119863  0.4946589104014417
  0.7773664491239326  0.1007540687880136  0.4946589104014417
  0.2747356155182514  0.7318482946006500  0.5062696623127504
  0.7252643844817496  0.2681517053993510  0.5062696623127504
  0.1863915627388603  0.5835069689835204  0.5191666354147405
  0.8136084372611389  0.4164930310164794  0.5191666354147405
  0.0511958810019839  0.6073836325387456  0.5142446977062585
  0.9488041189980154  0.3926163674612544  0.5142446977062585
  0.9949453931728025  0.7816523256604858  0.4933432922315306
  0.0050546068271985  0.2183476743395147  0.4933432922315306
  0.3240175133542253  0.5650164363942219  0.5134122850732552
  0.6759824866457749  0.4349835636057782  0.5134122850732552
  0.9173417285415528  0.6326928180755569  0.5027390047206095
  0.0826582714584470  0.3673071819244431  0.5027390047206095
  0.6448272227538864  0.7473637396230293  0.4993861695984844
  0.3551727772461133  0.2526362603769712  0.4993861695984844
  0.5942468262201306  0.5783498478651560  0.5236928098754400
  0.4057531737798692  0.4216501521348447  0.5236928098754400
  0.7333567654779792  0.6021203572147602  0.4921885386559097
  0.2666432345220213  0.3978796427852397  0.4921885386559097
  0.7833154900689899  0.7706737571286003  0.4817412156732158
  0.2166845099310094  0.2293262428714002  0.4817412156732158
  0.6955449641765186  0.9196521886054961  0.4854924129575784
  0.3044550358234818  0.0803478113945033  0.4854924129575784
  0.5595426886384091  0.8943924916572309  0.4978393370366319
  0.4404573113615911  0.1056075083427691  0.4978393370366319
  0.5067134485004311  0.7184364214576618  0.5174248834907870
  0.4932865514995688  0.2815635785423385  0.5174248834907870
  0.8358615714278986  0.9348406827744158  0.4809804160267456
  0.1641384285721013  0.0651593172255847  0.4809804160267456
  0.4250580240920073  0.8645250305756395  0.5062672836745091
  0.5749419759079928  0.1354749694243599  0.5062672836745091
  0.8888553520626679  0.8936579292119341  0.4795681627085356
  0.1111446479373321  0.1063420707880656  0.4795681627085356
  0.3776745421885173  0.6035902695481550  0.5169233644142749
  0.6223254578114827  0.3964097304518450  0.5169233644142749
  0.9126000239129209  0.5530523614752698  0.5096788340683837
  0.0873999760870800  0.4469476385247308  0.5096788340683837
  0.4189584338118731  0.9443130095277344  0.4991386144425448
  0.5810415661881275  0.0556869904722661  0.4991386144425448
  0.3754641283893977  0.8170262132992201  0.5092620144142080
  0.6245358716106025  0.1829737867007798  0.5092620144142080
  0.8684107098848100  0.6799695474446583  0.4931955997217507
  0.1315892901151902  0.3200304525553412  0.4931955997217507
  0.5000000000000000  0.5000000000000000  0.5440161988443452

